&CONTROL
calculation = "scf"
etot_conv_thr = 1.0d-5
forc_conv_thr = 1.0d-4
disk_io = 'none'
pseudo_dir = '/opt/QEpot/SSSP_precision_pseudos/'
/
!controlend

&SYSTEM
occupations = "smearing"
nat = 32
smearing = "gaussian"
ntyp = 5
ibrav = 0
ecutwfc = 90
ecutrho = 1080
nosym = .TRUE.
degauss = 1.00000e-02
nspin = 2
starting_magnetization(5) =  2.00000e-01
starting_magnetization(4) =  2.00000e-01
starting_magnetization(3) =  2.00000e-01
starting_magnetization(2) =  2.00000e-01
starting_magnetization(1) =  2.00000e-01
!systemend
/

&ELECTRONS
startingwfc = "atomic+random"
mixing_beta = 2.0000e-01
mixing_mode = "plain"
!mixing_ndim = 4
electron_maxstep = 1000
conv_thr = 1.00000e-8
startingpot = "atomic"
!diagonalization = "cg"
/
!electronsend
K_POINTS {automatic}
3 3 3 0 0 0
ATOMIC_SPECIES
Co  58.933  Co_pbe_v1.2.uspp.F.UPF
Cr  51.9961  cr_pbe_v1.5.uspp.F.UPF
Fe  55.845  Fe.pbe-spn-kjpaw_psl.0.2.1.UPF
Mn  54.938  mn_pbe_v1.5.uspp.F.UPF
Ni  58.693  ni_pbe_v1.4.uspp.F.UPF
ATOMIC_POSITIONS {angstrom}
Mn 5.39532138347849 3.59688092231899 5.39532138347849
Fe 3.59688092231899 5.39532138347849 5.39532138347849
Co 5.39532138347849 5.39532138347849 3.59688092231899
Ni 3.59688092231899 3.59688092231899 3.59688092231899
Cr 5.39532138347849 3.59688092231899 1.7984404611595
Fe 3.59688092231899 5.39532138347849 1.7984404611595
Ni 5.39532138347849 5.39532138347849 0
Co 3.59688092231899 3.59688092231899 0
Cr 5.39532138347849 0 5.39532138347849
Fe 3.59688092231899 1.7984404611595 5.39532138347849
Co 5.39532138347849 1.7984404611595 3.59688092231899
Mn 3.59688092231899 0 3.59688092231899
Cr 5.39532138347849 0 1.7984404611595
Fe 3.59688092231899 1.7984404611595 1.7984404611595
Ni 5.39532138347849 1.7984404611595 0
Mn 3.59688092231899 0 0
Mn 1.7984404611595 3.59688092231899 5.39532138347849
Fe 0 5.39532138347849 5.39532138347849
Co 1.7984404611595 5.39532138347849 3.59688092231899
Ni 0 3.59688092231899 3.59688092231899
Cr 1.7984404611595 3.59688092231899 1.7984404611595
Fe 0 5.39532138347849 1.7984404611595
Ni 1.7984404611595 5.39532138347849 0
Co 0 3.59688092231899 0
Cr 1.7984404611595 0 5.39532138347849
Fe 0 1.7984404611595 5.39532138347849
Co 1.7984404611595 1.7984404611595 3.59688092231899
Mn 0 0 3.59688092231899
Cr 1.7984404611595 0 1.7984404611595
Mn 0 1.7984404611595 1.7984404611595
Ni 1.7984404611595 1.7984404611595 0
Co 0 0 0
CELL_PARAMETERS {angstrom}
7.19376184463798 0 0
0 7.19376184463798 0
0 0 7.19376184463798
!End