&CONTROL
calculation = "scf"
nstep = 100
etot_conv_thr = 1.0d-5
forc_conv_thr = 1.0d-4
disk_io = 'none'
pseudo_dir = '/opt/QEpot/SSSP_efficiency_pseudos/'
/
!controlend

&SYSTEM
occupations = "smearing"
nat = 32
smearing = "gaussian"
ntyp = 5
ibrav = 0
ecutwfc = 90
ecutrho = 1080
nosym = .TRUE.
degauss = 1.00000e-02
nspin = 2
starting_magnetization(5) =  0.2
starting_magnetization(4) =  0.2
starting_magnetization(3) =  0.2
starting_magnetization(2) =  0.2
starting_magnetization(1) =  0.2
!systemend
/

&ELECTRONS
startingwfc = "atomic+random"
mixing_beta = 2.0000e-01
mixing_mode = "plain"
!mixing_ndim = 4
electron_maxstep = 1000
conv_thr = 1.00000e-8
startingpot = "atomic"
!diagonalization = "cg"
/
!electronsend


&IONS
ion_dynamics = "bfgs"
!ion_temperature = "rescaling"
!tempw = 0
/
!ionsend

&CELL
press_conv_thr = 0.1
cell_dynamics = "bfgs"
cell_dofree = "xyz"
!press = 0
/
!cellend

K_POINTS {automatic}
1 1 1 0 0 0
ATOMIC_SPECIES
Ni  58.693  ni_pbe_v1.4.uspp.F.UPF
Mn  54.938  mn_pbe_v1.5.uspp.F.UPF
Fe  55.845  Fe.pbe-spn-kjpaw_psl.0.2.1.UPF
Cr  51.9961  cr_pbe_v1.5.uspp.F.UPF
Co  58.933  Co_pbe_v1.2.uspp.F.UPF
ATOMIC_POSITIONS (angstrom)
Cr 5.40418551278886 3.60279034185924 5.40418551278886
Cr 5.40418551278886 5.40418551278886 3.60279034185924
Co 5.40418551278886 3.60279034185924 1.80139517092962
Cr 5.40418551278886 5.40418551278886 0
Cr 5.40418551278886 0 5.40418551278886
Cr 5.40418551278886 1.80139517092962 3.60279034185924
Co 5.40418551278886 0 1.80139517092962
Cr 5.40418551278886 1.80139517092962 0
Mn 3.60279034185924 5.40418551278886 5.40418551278886
Ni 3.60279034185924 3.60279034185924 3.60279034185924
Cr 3.60279034185924 5.40418551278886 1.80139517092962
Fe 3.60279034185924 3.60279034185924 0
Mn 3.60279034185924 1.80139517092962 5.40418551278886
Ni 3.60279034185924 0 3.60279034185924
Mn 3.60279034185924 1.80139517092962 1.80139517092962
Ni 3.60279034185924 0 0
Cr 1.80139517092962 3.60279034185924 5.40418551278886
Cr 1.80139517092962 5.40418551278886 3.60279034185924
Mn 0 5.40418551278886 5.40418551278886
Ni 0 3.60279034185924 3.60279034185924
Co 1.80139517092962 3.60279034185924 1.80139517092962
Cr 1.80139517092962 5.40418551278886 0
Mn 0 5.40418551278886 1.80139517092962
Ni 0 3.60279034185924 0
Co 1.80139517092962 0 5.40418551278886
Cr 1.80139517092962 1.80139517092962 3.60279034185924
Mn 0 1.80139517092962 5.40418551278886
Ni 0 0 3.60279034185924
Co 1.80139517092962 0 1.80139517092962
Cr 1.80139517092962 1.80139517092962 0
Mn 0 1.80139517092962 1.80139517092962
Ni 0 0 0
CELL_PARAMETERS (angstrom)
7.20558068371847 0 0
0 7.20558068371847 0
0 0 7.20558068371847
!End